NAME:10007
COMMENT: From "On the generation of Metric TSP instances with a large integrality gap by branch-and-cut" (Vercesi, Gualandi, Mastrolilli, Gambardella)
TYPE: TSP
DIMENSION: 10
EDGE_WEIGHT_TYPE: EXPLICIT
EDGE_WEIGHT_FORMAT: UPPER_ROW
EDGE_WEIGHT_SECTION
137 183 45 227 273 94 91 137 46 136 92 182 318 45 228 90 183 228 318 182 91 92 46 137 182 318 137 136 182 91 136 227 318 272 273 273 182 228 227 183 45 138 138 45 183 
EOF